c A SAT instance generated from a 3-CNF formula that had 36 clauses and 9 variables
p cnf 9 36
-2 8 -6 0
-6 -5 2 0
-7 -1 -3 0
4 7 -9 0
-7 -6 2 0
9 -3 7 0
3 7 6 0
-9 7 -6 0
1 6 9 0
-9 3 7 0
3 6 -8 0
4 2 -6 0
9 7 -6 0
-7 -4 6 0
3 1 6 0
-3 5 -9 0
-5 -6 -8 0
8 3 7 0
6 -9 2 0
-5 1 2 0
1 3 6 0
9 2 -5 0
9 7 -8 0
-1 -4 -9 0
-5 4 6 0
-6 1 -9 0
9 6 -3 0
-7 8 -2 0
-2 -6 7 0
6 8 -5 0
-2 7 -1 0
-5 -1 -2 0
2 -1 -3 0
7 8 5 0
9 -2 -3 0
-3 -8 2 0
